p cnf 7230 17
6969 -7006 0
-6933 -6967 7004 0
6971 -7008 0
6933 -7004 0
6971 -7012 0
-4976 -7008 7012 0
6969 -7010 0
-4974 -7006 -7009 0
7007 7008 0
-6971 -7007 0
7005 7006 0
-6969 -7005 0
7009 7010 0
4974 -7010 0
4976 -7012 0
7003 7004 0
-7003 -7004 0
